InboundTrucks  = 10;
OutboundTrucks = 10;
InboundDoors   = 4;
OutboundDoors  = 4;
ReleaseTime    = [30,75,69,16,47,117,77,60,80,74];
UnloadTime     = [25,27,21,17,33,24,24,27,24,22];
LoadTime       = [5,15,7,20,19,7,14,15,6,12];
TransferTime   = [| 6,0,0,0,0,0,0,0,0,5 | 0,0,0,0,0,8,0,0,4,0 | 3,0,0,0,0,4,0,8,0,0 | 0,0,5,0,0,0,0,0,5,0 | 0,0,0,0,0,0,0,0,0,0 | 0,0,0,0,7,0,0,0,0,0 | 4,0,0,0,0,0,6,6,0,0 | 0,0,5,0,0,0,0,0,4,3 | 3,0,0,6,4,6,0,0,0,0 | 8,4,0,0,3,0,0,0,0,7 |];
